50
    1    39    35
    2    30    26
    3    52    48
    4    26    21
    5    27    22
    6    48    45
    7    44    43
    8    42    45
    9    10     5
   10     1     2
   11     6     9
   12     6     1
   13    18    22
   14    40    44
   15    38    38
   16    22    24
   17    11    15
   18    29    32
   19    22    17
   20    32    34
   21    54    49
   22    31    33
   23    36    32
   24    17    22
   25    25    24
   26    36    38
   27     3     6
   28    47    45
   29    50    45
   30    29    29
   31    48    49
   32    24    27
   33    44    47
   34    17    19
   35    47    42
   36    12     7
   37    22    22
   38    20    20
   39    52    48
   40    47    50
   41    41    45
   42    15    17
   43    24    22
   44    43    45
   45     8    13
   46    46    48
   47    38    37
   48    22    23
   49    27    29
   50    28    24
247
